c Random 5-CNF over 30 variables and 150 clauses
c Generated with `cnfgen`
c (C) 2012-2016 Massimo Lauria <lauria.massimo@gmail.com>
c https://massimolauria.github.io/cnfgen
c
c COMMAND LINE: cnfgen --output tmp-5-30-150.dimacs --output-format dimacs randkcnf 5 30 150
c
c sdimacs generated by gen-sdimacs
c
p cnf 30 150
e 16 17 18 19 20 21 22 23 24 25 26 27 28 29 30 0
r 0.37 1 2 3 4 5 6 7 8 9 10 11 12 13 14 15 0
4 6 12 -15 23 0
10 17 -26 28 29 0
-9 -10 19 24 30 0
1 13 17 19 25 0
14 18 -26 -29 30 0
6 7 8 10 23 0
10 -11 16 -28 30 0
3 7 -10 -13 -29 0
3 5 12 -17 25 0
-5 15 26 28 30 0
-4 -5 -15 19 -22 0
7 12 -15 -22 30 0
-13 -15 -23 27 28 0
-2 6 -16 -18 26 0
3 -8 10 13 -27 0
1 12 18 24 -28 0
10 -15 -20 23 -24 0
-8 13 -19 -23 -25 0
11 -15 16 22 29 0
-3 7 -9 17 -21 0
-5 7 9 -10 -29 0
8 -10 -14 28 29 0
-3 -12 -19 -27 29 0
3 17 21 -22 -27 0
3 4 11 -14 -24 0
-4 5 -8 14 -17 0
1 6 -11 27 29 0
-2 8 -11 -22 25 0
-2 15 21 24 -30 0
-3 7 16 24 -30 0
2 7 -9 22 -27 0
5 -9 11 29 30 0
9 -10 20 -28 29 0
9 13 23 -24 25 0
1 3 12 18 -30 0
6 -13 -14 -16 30 0
-6 8 -10 -12 -30 0
-1 6 -16 -26 -27 0
3 10 -16 -17 19 0
3 5 6 -13 -25 0
1 -9 -25 27 30 0
7 13 16 18 -28 0
-6 -7 -9 -11 -28 0
-18 -21 -24 -27 -30 0
10 -12 -15 17 -26 0
-2 18 19 -20 24 0
1 4 5 -14 -15 0
-17 -21 -23 -24 -25 0
-2 -3 6 -24 28 0
-4 -6 -24 -26 30 0
-7 -10 -23 27 -30 0
-1 -12 23 -27 29 0
-18 23 24 25 -26 0
1 4 6 -14 -20 0
5 8 -11 18 23 0
-11 16 -21 -24 -25 0
-1 5 -10 -14 -24 0
11 12 19 23 30 0
-9 15 -20 -28 -30 0
7 16 19 -26 -30 0
5 15 -19 25 27 0
-9 -12 -13 15 25 0
4 8 -20 -26 -30 0
12 -16 -17 -18 30 0
-2 -13 -22 24 -26 0
1 2 -4 10 13 0
4 -9 13 -17 25 0
10 12 16 19 -21 0
-10 13 14 -15 -20 0
-11 14 16 23 29 0
13 -21 -23 27 29 0
-8 -14 -15 -22 27 0
-7 13 -21 24 -27 0
7 8 15 19 22 0
1 -7 -15 -29 -30 0
-1 -7 11 -12 -30 0
9 -10 17 27 -29 0
5 10 -12 24 -29 0
-1 6 -11 -14 18 0
-15 -17 22 28 30 0
-11 22 23 -27 -29 0
3 -5 22 -24 -25 0
-1 2 7 23 28 0
7 16 28 29 30 0
-1 7 -18 23 -30 0
-1 12 16 19 24 0
-4 8 -9 -26 -30 0
3 5 10 -19 -30 0
-4 -17 -23 26 28 0
-4 7 -10 11 -26 0
-3 -6 -20 -22 -25 0
-2 5 12 -20 -22 0
9 -14 15 -21 24 0
-5 -6 21 24 -25 0
-8 -17 20 -21 28 0
3 6 -8 -14 27 0
-3 8 -20 -23 -28 0
-12 -14 25 -27 28 0
-8 9 -10 -17 23 0
-9 13 17 19 25 0
-4 -8 11 12 15 0
-1 6 20 -27 28 0
-1 7 17 24 -28 0
-7 17 18 -19 -26 0
-2 -10 22 25 30 0
-11 12 13 14 17 0
-1 4 -11 -24 -25 0
-4 -8 13 -24 28 0
2 10 -11 19 -29 0
1 -10 -12 -14 21 0
6 -7 -16 -24 29 0
14 20 21 -22 -24 0
-4 -11 -18 -23 -28 0
-11 15 -25 26 -27 0
-3 -6 13 -15 23 0
-1 -9 -10 14 -21 0
-2 10 13 29 -30 0
-5 -7 11 22 -26 0
-2 4 7 14 -22 0
8 10 -15 -19 -26 0
2 -19 -21 -24 -27 0
10 -12 16 26 -30 0
1 -9 12 17 -21 0
9 19 -22 24 28 0
-13 14 -18 25 -28 0
1 20 24 25 30 0
14 -16 -19 -25 26 0
4 17 23 24 25 0
3 -8 -14 -22 -28 0
6 9 10 24 -26 0
-2 6 -11 20 -23 0
-1 -13 15 23 -26 0
4 -13 -15 -17 -27 0
10 12 16 -17 27 0
5 11 16 19 24 0
-1 4 -16 21 -30 0
1 7 11 21 29 0
-9 -10 18 22 24 0
3 -9 -10 -12 18 0
5 13 20 21 -27 0
-5 -11 17 -20 -27 0
-12 -21 24 -28 29 0
-8 14 -16 22 26 0
1 -3 -18 -20 -26 0
-6 13 -22 -23 -25 0
-15 -16 24 27 29 0
-1 22 -23 28 -30 0
-2 -17 25 27 28 0
3 -6 12 -15 26 0
-4 -8 -10 18 27 0
